     Program PWSCF v.6.4.1 starts on  9Jan2020 at 13:56: 3

     K-points division:     npool     =      16
     R & G space division:  proc/nbgrp/npool/nimage =       2
     Reading input from espresso.scf.in

     Current dimensions of program PWSCF are:
     Max number of different atomic species (ntypx) = 10
     Max number of k-points (npk) =  40000
     Max angular momentum in pseudopotentials (lmaxx) =  3
               file Ti.rel-pz-spn-rrkjus_psl.1.0.0.UPF: wavefunction(s)  3S 3D 3D renormalized
               file Ti.rel-pz-spn-rrkjus_psl.1.0.0.UPF: wavefunction(s)  3S 3D 3D renormalized
               file Pt.rel-pz-n-rrkjus_psl.0.1.UPF: wavefunction(s)  5D renormalized
               file Pt.rel-pz-n-rrkjus_psl.0.1.UPF: wavefunction(s)  5D renormalized

     Subspace diagonalization in iterative solution of the eigenvalue problem:
     a serial algorithm will be used

     bravais-lattice index     =           14
     lattice parameter (alat)  =      10.0485  a.u.
     unit-cell volume          =    3646.8523 (a.u.)^3
     number of atoms/cell      =            8
     number of atomic types    =            4
     number of electrons       =        88.00
     number of Kohn-Sham states=          106
     kinetic-energy cutoff     =      52.0000  Ry
     charge density cutoff     =     576.0000  Ry
     convergence threshold     =      1.0E-08
     mixing beta               =       0.7000
     number of iterations used =            8  plain     mixing
     Exchange-correlation      = LDA ( 1  1  0  0 0 0)
     Noncollinear calculation with spin-orbit

     celldm(1)=  10.048505  celldm(2)=   1.000000  celldm(3)=   5.167919
     celldm(4)=   0.516021  celldm(5)=   0.516021  celldm(6)=   0.500000

     crystal axes: (cart. coord. in units of alat)
               a(1) = (   1.000000   0.000000   0.000000 )
               a(2) = (   0.500000   0.866025   0.000000 )
               a(3) = (   2.666755   1.539652   4.150335 )

     reciprocal axes: (cart. coord. in units 2 pi/alat)
               b(1) = (  1.000000 -0.577350 -0.428360 )
               b(2) = (  0.000000  1.154701 -0.428360 )
               b(3) = (  0.000000  0.000000  0.240944 )

     PseudoPot. # 1 for Ti read from file:
     pseudo/Ti.rel-pz-spn-rrkjus_psl.1.0.0.UPF
     MD5 check sum: 5a87722dc3d0c4aa3e8de94147e27861
     Pseudo is Ultrasoft + core correction, Zval = 12.0
     Generated using "atomic" code by A. Dal Corso v.6.2.2
     Using radial grid of 1177 points, 10 beta functions with:
                l(1) =   0
                l(2) =   0
                l(3) =   1
                l(4) =   1
                l(5) =   1
                l(6) =   1
                l(7) =   2
                l(8) =   2
                l(9) =   2
               l(10) =   2
     Q(r) pseudized with 0 coefficients

     PseudoPot. # 2 for Ti read from file:
     pseudo/Ti.rel-pz-spn-rrkjus_psl.1.0.0.UPF
     MD5 check sum: 5a87722dc3d0c4aa3e8de94147e27861
     Pseudo is Ultrasoft + core correction, Zval = 12.0
     Generated using "atomic" code by A. Dal Corso v.6.2.2
     Using radial grid of 1177 points, 10 beta functions with:
                l(1) =   0
                l(2) =   0
                l(3) =   1
                l(4) =   1
                l(5) =   1
                l(6) =   1
                l(7) =   2
                l(8) =   2
                l(9) =   2
               l(10) =   2
     Q(r) pseudized with 0 coefficients

     PseudoPot. # 3 for Pt read from file:
     pseudo/Pt.rel-pz-n-rrkjus_psl.0.1.UPF
     MD5 check sum: 5554f0f06d78f1ca51ad76ba2c277092
     Pseudo is Ultrasoft + core correction, Zval = 10.0
     Generated using "atomic" code by A. Dal Corso v.5.0.2 svn rev. 9415
     Using radial grid of 1277 points, 10 beta functions with:
                l(1) =   0
                l(2) =   0
                l(3) =   1
                l(4) =   1
                l(5) =   1
                l(6) =   1
                l(7) =   2
                l(8) =   2
                l(9) =   2
               l(10) =   2
     Q(r) pseudized with 0 coefficients

     PseudoPot. # 4 for Pt read from file:
     pseudo/Pt.rel-pz-n-rrkjus_psl.0.1.UPF
     MD5 check sum: 5554f0f06d78f1ca51ad76ba2c277092
     Pseudo is Ultrasoft + core correction, Zval = 10.0
     Generated using "atomic" code by A. Dal Corso v.5.0.2 svn rev. 9415
     Using radial grid of 1277 points, 10 beta functions with:
                l(1) =   0
                l(2) =   0
                l(3) =   1
                l(4) =   1
                l(5) =   1
                l(6) =   1
                l(7) =   2
                l(8) =   2
                l(9) =   2
               l(10) =   2
     Q(r) pseudized with 0 coefficients

     atomic species   valence    mass     pseudopotential
        Ti2           12.00    47.86700     Ti( 1.00)
        Ti1           12.00    47.86700     Ti( 1.00)
        Pt1           10.00   195.08400     Pt( 1.00)
        Pt2           10.00   195.08400     Pt( 1.00)

     No symmetry found

   Cartesian axes

     site n.     atom                  positions (alat units)
         1           Ti2 tau(   1) = (   2.7082900   1.2749560   2.2697420  )
         2           Ti1 tau(   2) = (   1.4583590   0.8419840   2.2696860  )
         3           Ti2 tau(   3) = (   1.9583580   0.8419840   2.2696860  )
         4           Ti1 tau(   4) = (   2.2083590   1.2749960   2.2696850  )
         5           Pt1 tau(   5) = (   2.2083600   0.6976470   1.8806040  )
         6           Pt2 tau(   6) = (   1.7083590   0.6976470   1.8806040  )
         7           Pt2 tau(   7) = (   2.4583590   1.1306590   1.8806040  )
         8           Pt1 tau(   8) = (   1.9583580   1.1306590   1.8806040  )

     number of k points=    64  Marzari-Vanderbilt smearing, width (Ry)=  0.0200
                       cart. coord. in units 2pi/alat
        k(    1) = (   0.0000000   0.0000000   0.0000000), wk =   0.0156250
        k(    2) = (   0.0000000   0.1443376  -0.0535450), wk =   0.0156250
        k(    3) = (   0.0000000   0.2886751  -0.1070899), wk =   0.0156250
        k(    4) = (   0.0000000   0.4330127  -0.1606349), wk =   0.0156250
        k(    5) = (   0.0000000  -0.5773503   0.2141799), wk =   0.0156250
        k(    6) = (   0.1250000   0.0721688  -0.1070899), wk =   0.0156250
        k(    7) = (   0.1250000   0.2165064  -0.1606349), wk =   0.0156250
        k(    8) = (   0.1250000   0.3608439  -0.2141799), wk =   0.0156250
        k(    9) = (   0.1250000  -0.6495191   0.1606349), wk =   0.0156250
        k(   10) = (   0.1250000  -0.5051815   0.1070899), wk =   0.0156250
        k(   11) = (   0.1250000  -0.3608439   0.0535450), wk =   0.0156250
        k(   12) = (   0.1250000  -0.2165064   0.0000000), wk =   0.0156250
        k(   13) = (   0.2500000   0.1443376  -0.2141799), wk =   0.0156250
        k(   14) = (   0.2500000   0.2886751  -0.2677249), wk =   0.0156250
        k(   15) = (   0.2500000  -0.7216878   0.1070899), wk =   0.0156250
        k(   16) = (   0.2500000  -0.5773503   0.0535450), wk =   0.0156250
        k(   17) = (   0.2500000  -0.4330127   0.0000000), wk =   0.0156250
        k(   18) = (   0.3750000   0.2165064  -0.3212698), wk =   0.0156250
        k(   19) = (   0.3750000  -0.7938566   0.0535450), wk =   0.0156250
        k(   20) = (   0.3750000  -0.6495191   0.0000000), wk =   0.0156250
        k(   21) = (  -0.5000000  -0.2886751   0.4283598), wk =   0.0156250
        k(   22) = (  -0.1250000   0.0721688   0.0535450), wk =   0.0156250
        k(   23) = (   0.0000000  -0.1443376   0.0535450), wk =   0.0156250
        k(   24) = (   0.1250000  -0.0721688  -0.0535450), wk =   0.0156250
        k(   25) = (  -0.2500000   0.1443376   0.1070899), wk =   0.0156250
        k(   26) = (   0.0000000  -0.2886751   0.1070899), wk =   0.0156250
        k(   27) = (   0.2500000  -0.1443376  -0.1070899), wk =   0.0156250
        k(   28) = (  -0.3750000   0.2165064   0.1606349), wk =   0.0156250
        k(   29) = (   0.0000000  -0.4330127   0.1606349), wk =   0.0156250
        k(   30) = (   0.3750000  -0.2165064  -0.1606349), wk =   0.0156250
        k(   31) = (   0.5000000  -0.2886751  -0.2141799), wk =   0.0156250
        k(   32) = (  -0.1250000  -0.0721688   0.1070899), wk =   0.0156250
        k(   33) = (  -0.2500000   0.0000000   0.1606349), wk =   0.0156250
        k(   34) = (  -0.1250000  -0.2165064   0.1606349), wk =   0.0156250
        k(   35) = (   0.2500000   0.0000000  -0.1606349), wk =   0.0156250
        k(   36) = (  -0.3750000   0.0721688   0.2141799), wk =   0.0156250
        k(   37) = (  -0.1250000  -0.3608439   0.2141799), wk =   0.0156250
        k(   38) = (   0.3750000  -0.0721688  -0.2141799), wk =   0.0156250
        k(   39) = (   0.5000000  -0.4330127  -0.1606349), wk =   0.0156250
        k(   40) = (  -0.1250000   0.6495191  -0.1606349), wk =   0.0156250
        k(   41) = (  -0.5000000   0.4330127   0.1606349), wk =   0.0156250
        k(   42) = (   0.3750000  -0.3608439  -0.1070899), wk =   0.0156250
        k(   43) = (  -0.1250000   0.5051815  -0.1070899), wk =   0.0156250
        k(   44) = (  -0.3750000   0.3608439   0.1070899), wk =   0.0156250
        k(   45) = (   0.2500000  -0.2886751  -0.0535450), wk =   0.0156250
        k(   46) = (  -0.1250000   0.3608439  -0.0535450), wk =   0.0156250
        k(   47) = (  -0.2500000   0.2886751   0.0535450), wk =   0.0156250
        k(   48) = (  -0.1250000   0.2165064  -0.0000000), wk =   0.0156250
        k(   49) = (  -0.2500000  -0.1443376   0.2141799), wk =   0.0156250
        k(   50) = (  -0.3750000  -0.0721688   0.2677249), wk =   0.0156250
        k(   51) = (  -0.2500000  -0.2886751   0.2677249), wk =   0.0156250
        k(   52) = (   0.3750000   0.0721688  -0.2677249), wk =   0.0156250
        k(   53) = (   0.5000000  -0.5773503  -0.1070899), wk =   0.0156250
        k(   54) = (  -0.2500000   0.7216878  -0.1070899), wk =   0.0156250
        k(   55) = (  -0.5000000   0.5773503   0.1070899), wk =   0.0156250
        k(   56) = (   0.3750000  -0.5051815  -0.0535450), wk =   0.0156250
        k(   57) = (  -0.2500000   0.5773503  -0.0535450), wk =   0.0156250
        k(   58) = (  -0.3750000   0.5051815   0.0535450), wk =   0.0156250
        k(   59) = (  -0.2500000   0.4330127  -0.0000000), wk =   0.0156250
        k(   60) = (  -0.3750000  -0.2165064   0.3212698), wk =   0.0156250
        k(   61) = (   0.5000000  -0.7216878  -0.0535450), wk =   0.0156250
        k(   62) = (  -0.3750000   0.7938566  -0.0535450), wk =   0.0156250
        k(   63) = (  -0.5000000   0.7216878   0.0535450), wk =   0.0156250
        k(   64) = (  -0.3750000   0.6495191  -0.0000000), wk =   0.0156250

     Initial potential from superposition of free atoms

     starting charge   87.99450, renormalised to   88.00000

     negative rho (up, down):  5.383E-04 6.865E-02

     atom number    1 relative position :    2.7083   1.2750   2.2697
     charge :    10.199770
     magnetization :          2.082674    0.046846   -3.926917
     magnetization/charge:    0.204188    0.004593   -0.385001
     polar coord.: r, theta, phi [deg] :     4.445268  152.054379    1.288537

[...]

     Starting wfcs are  152 randomized atomic wfcs

     Self-consistent Calculation

     iteration #  1     ecut=    52.00 Ry     beta= 0.70
     Davidson diagonalization with overlap
     ethr =  1.00E-02,  avg # of iterations =  2.3

[...]

     total energy              =    -742.01355552 Ry
     Harris-Foulkes estimate   =    -766.80317379 Ry
     estimated scf accuracy    <      30.14632960 Ry

     total magnetization       =     8.45     2.45    -5.11 Bohr mag/cell
     absolute magnetization    =    17.10 Bohr mag/cell

[...]

     total energy              =    -767.41513109 Ry
     Harris-Foulkes estimate   =    -767.41518496 Ry
     estimated scf accuracy    <       0.00000004 Ry

[...]

     iteration # 74     ecut=    52.00 Ry     beta= 0.70
     Davidson diagonalization with overlap
     ethr =  1.28E-11,  avg # of iterations = 11.0

[...]

     atom number    8 relative position :    1.9584   1.1307   1.8806
     charge :     7.582482
     magnetization :          0.039823    0.005139   -0.007920
     magnetization/charge:    0.005252    0.000678   -0.001044
     polar coord.: r, theta, phi [deg] :     0.040927  101.157752    7.353327

     End of self-consistent calculation

          k = 0.0000 0.0000 0.0000 ( 23129 PWs)   bands (ev):

   -56.2228 -55.9844 -55.9844 -55.9843 -55.6692 -55.4303 -55.4303 -55.4303
   -33.4170 -33.3955 -33.3865 -33.0724 -33.0537 -33.0469 -32.9612 -32.6882
   -32.6185 -32.5871 -32.5553 -32.3297 -32.3127 -32.2987 -32.1711 -32.1340
   -32.1032 -32.0541 -32.0100 -31.7558 -31.7298 -31.7220 -31.4934 -31.4304
    -9.1851  -9.1376  -7.4684  -7.4684  -7.4682  -7.4365  -7.4364  -7.4364
    -6.0064  -6.0046  -6.0038  -5.9404  -5.9398  -5.9378  -5.7812  -5.5207
    -4.7445  -4.7392  -4.2131  -4.2114  -4.2108  -4.0301  -4.0296  -4.0281
    -3.5621  -3.5560  -2.8275  -2.5683  -2.5661  -2.5388  -2.5246  -2.5121
    -2.4954  -2.4932  -1.8755  -1.8750  -1.8736  -1.7836  -1.7321  -1.4704
    -1.4692  -1.4683  -1.3115  -1.2976  -0.6180  -0.3846  -0.3759  -0.3723
    -0.0655  -0.0592  -0.0431   0.0055   0.2396   0.3529   0.3569   0.3572
     0.3689   0.3738   0.3784   0.5316   0.5370   0.5377   0.6315   0.9074
     0.9102   0.9170   1.1421   1.1464   1.6542   1.6561   2.5979   2.6067
     2.6138   2.7559

[...]

          k =-0.5000-0.2887 0.4284 ( 22994 PWs)   bands (ev):

[...]

          k = 0.5000-0.7217-0.0535 ( 23076 PWs)   bands (ev):

[...]

          k =-0.3750 0.6495-0.0000 ( 23042 PWs)   bands (ev):

   -56.0876 -56.0874 -56.0487 -55.9558 -55.5340 -55.5336 -55.4943 -55.4018
   -33.2171 -33.1384 -33.0664 -33.0544 -33.0151 -32.9232 -32.8376 -32.8290
   -32.6216 -32.5882 -32.4378 -32.3931 -32.3127 -32.2335 -32.2097 -32.1686
   -32.1395 -32.0855 -32.0499 -32.0375 -32.0367 -31.7681 -31.6703 -31.6596
    -6.7574  -6.7375  -6.6662  -6.6490  -6.1075  -5.8729  -5.6306  -5.5661
    -5.5173  -5.4688  -5.4217  -5.4086  -5.3570  -5.3417  -5.2000  -5.0064
    -4.9605  -4.9376  -4.8969  -4.7022  -4.5715  -4.5427  -4.4669  -4.3982
    -4.3679  -4.2270  -4.1686  -4.0356  -3.9073  -3.8381  -3.8083  -3.6166
    -3.6057  -3.4777  -2.7550  -2.5376  -2.4327  -2.4169  -2.3105  -2.2986
    -1.5520  -1.5187  -1.3708  -1.3518  -1.2191  -1.2163  -0.9994  -0.6023
    -0.5902  -0.4596  -0.3196  -0.2596  -0.2189  -0.2132  -0.1466  -0.1225
    -0.0468   0.1620   0.3734   0.3837   0.4140   0.4184   0.5420   0.6559
     0.6853   0.8727   0.8846   0.9375   1.0784   1.2414   1.3938   1.6773
     1.8111   1.8271

     the Fermi energy is     0.1366 ev

!    total energy              =    -767.41518655 Ry
     Harris-Foulkes estimate   =    -767.41518650 Ry
     estimated scf accuracy    <          6.0E-09 Ry

     The total energy is the sum of the following terms:

     one-electron contribution =   -5310.14785013 Ry
     hartree contribution      =    2671.57259578 Ry
     xc contribution           =    -198.34721513 Ry
     ewald contribution        =    2069.50032803 Ry
     smearing contrib. (-TS)   =       0.00695491 Ry

     total magnetization       =     4.10     0.53    -0.84 Bohr mag/cell
     absolute magnetization    =     4.24 Bohr mag/cell

     convergence has been achieved in  74 iterations

     negative rho (up, down):  5.147E-04 2.734E-02

     Forces acting on atoms (cartesian axes, Ry/au):

     atom    1 type  1   force =     0.00010713    0.00004555    0.04169516
     atom    2 type  2   force =    -0.00001973   -0.00005067    0.04180952
     atom    3 type  1   force =     0.00000614   -0.00001379    0.04180602
     atom    4 type  2   force =    -0.00003996   -0.00001687    0.04180874
     atom    5 type  3   force =    -0.00001140   -0.00002645   -0.04174659
     atom    6 type  4   force =    -0.00000534    0.00000849   -0.04181192
     atom    7 type  4   force =    -0.00000192    0.00002060   -0.04180942
     atom    8 type  3   force =    -0.00003491    0.00003314   -0.04175150

     Total force =     0.083560     Total SCF correction =     0.000047

     Computing stress (Cartesian axis) and pressure

     negative rho (up, down):  5.147E-04 2.734E-02
          total   stress  (Ry/bohr**3)                   (kbar)     P=   33.93
   0.00026084   0.00000008   0.00000006         38.37      0.01      0.01
   0.00000008   0.00026067  -0.00000004          0.01     38.35     -0.01
   0.00000006  -0.00000004   0.00017050          0.01     -0.01     25.08

     Writing output data file Pt.save/

     General routines

     Parallel routines

   This run was terminated on:   3:39: 9  10Jan2020

   JOB DONE.