     Program PWSCF v.6.4.1 starts on 10Jan2020 at 20:11:45

     K-points division:     npool     =      16
     R & G space division:  proc/nbgrp/npool/nimage =       2
     Reading input from espresso.scf.in

     Current dimensions of program PWSCF are:
     Max number of different atomic species (ntypx) = 10
     Max number of k-points (npk) =  40000
     Max angular momentum in pseudopotentials (lmaxx) =  3
               file Ti.rel-pz-spn-rrkjus_psl.1.0.0.UPF: wavefunction(s)  3S 3D 3D renormalized
               file Ti.rel-pz-spn-rrkjus_psl.1.0.0.UPF: wavefunction(s)  3S 3D 3D renormalized
               file Pt.rel-pz-n-rrkjus_psl.0.1.UPF: wavefunction(s)  5D renormalized
               file Pt.rel-pz-n-rrkjus_psl.0.1.UPF: wavefunction(s)  5D renormalized

     Subspace diagonalization in iterative solution of the eigenvalue problem:
     a serial algorithm will be used

     bravais-lattice index     =           14
     lattice parameter (alat)  =      10.0485  a.u.
     unit-cell volume          =    3646.8523 (a.u.)^3
     number of atoms/cell      =            8
     number of atomic types    =            4
     number of electrons       =        88.00
     number of Kohn-Sham states=          120
     kinetic-energy cutoff     =      52.0000  Ry
     charge density cutoff     =     576.0000  Ry
     convergence threshold     =      1.0E-08
     mixing beta               =       0.7000
     number of iterations used =            8  plain     mixing
     Exchange-correlation      = LDA ( 1  1  0  0 0 0)
     Noncollinear calculation with spin-orbit

     celldm(1)=  10.048505  celldm(2)=   1.000000  celldm(3)=   5.167919
     celldm(4)=   0.516021  celldm(5)=   0.516021  celldm(6)=   0.500000

     crystal axes: (cart. coord. in units of alat)
               a(1) = (   1.000000   0.000000   0.000000 )
               a(2) = (   0.500000   0.866025   0.000000 )
               a(3) = (   2.666755   1.539652   4.150335 )

     reciprocal axes: (cart. coord. in units 2 pi/alat)
               b(1) = (  1.000000 -0.577350 -0.428360 )
               b(2) = (  0.000000  1.154701 -0.428360 )
               b(3) = (  0.000000  0.000000  0.240944 )

     PseudoPot. # 1 for Ti read from file:
     pseudo/Ti.rel-pz-spn-rrkjus_psl.1.0.0.UPF
     MD5 check sum: 5a87722dc3d0c4aa3e8de94147e27861
     Pseudo is Ultrasoft + core correction, Zval = 12.0
     Generated using "atomic" code by A. Dal Corso v.6.2.2
     Using radial grid of 1177 points, 10 beta functions with:
                l(1) =   0
                l(2) =   0
                l(3) =   1
                l(4) =   1
                l(5) =   1
                l(6) =   1
                l(7) =   2
                l(8) =   2
                l(9) =   2
               l(10) =   2
     Q(r) pseudized with 0 coefficients

     PseudoPot. # 2 for Ti read from file:
     pseudo/Ti.rel-pz-spn-rrkjus_psl.1.0.0.UPF
     MD5 check sum: 5a87722dc3d0c4aa3e8de94147e27861
     Pseudo is Ultrasoft + core correction, Zval = 12.0
     Generated using "atomic" code by A. Dal Corso v.6.2.2
     Using radial grid of 1177 points, 10 beta functions with:
                l(1) =   0
                l(2) =   0
                l(3) =   1
                l(4) =   1
                l(5) =   1
                l(6) =   1
                l(7) =   2
                l(8) =   2
                l(9) =   2
               l(10) =   2
     Q(r) pseudized with 0 coefficients

     PseudoPot. # 3 for Pt read from file:
     pseudo/Pt.rel-pz-n-rrkjus_psl.0.1.UPF
     MD5 check sum: 5554f0f06d78f1ca51ad76ba2c277092
     Pseudo is Ultrasoft + core correction, Zval = 10.0
     Generated using "atomic" code by A. Dal Corso v.5.0.2 svn rev. 9415
     Using radial grid of 1277 points, 10 beta functions with:
                l(1) =   0
                l(2) =   0
                l(3) =   1
                l(4) =   1
                l(5) =   1
                l(6) =   1
                l(7) =   2
                l(8) =   2
                l(9) =   2
               l(10) =   2
     Q(r) pseudized with 0 coefficients

     PseudoPot. # 4 for Pt read from file:
     pseudo/Pt.rel-pz-n-rrkjus_psl.0.1.UPF
     MD5 check sum: 5554f0f06d78f1ca51ad76ba2c277092
     Pseudo is Ultrasoft + core correction, Zval = 10.0
     Generated using "atomic" code by A. Dal Corso v.5.0.2 svn rev. 9415
     Using radial grid of 1277 points, 10 beta functions with:
                l(1) =   0
                l(2) =   0
                l(3) =   1
                l(4) =   1
                l(5) =   1
                l(6) =   1
                l(7) =   2
                l(8) =   2
                l(9) =   2
               l(10) =   2
     Q(r) pseudized with 0 coefficients

     atomic species   valence    mass     pseudopotential
        Ti2           12.00    47.86700     Ti( 1.00)
        Ti1           12.00    47.86700     Ti( 1.00)
        Pt1           10.00   195.08400     Pt( 1.00)
        Pt2           10.00   195.08400     Pt( 1.00)

     No symmetry found

   Cartesian axes

     site n.     atom                  positions (alat units)
         1           Ti2 tau(   1) = (   2.7082900   1.2749560   2.2697420  )
         2           Ti1 tau(   2) = (   1.4583590   0.8419840   2.2696860  )
         3           Ti2 tau(   3) = (   1.9583580   0.8419840   2.2696860  )
         4           Ti1 tau(   4) = (   2.2083590   1.2749960   2.2696850  )
         5           Pt1 tau(   5) = (   2.2083600   0.6976470   1.8806040  )
         6           Pt2 tau(   6) = (   1.7083590   0.6976470   1.8806040  )
         7           Pt2 tau(   7) = (   2.4583590   1.1306590   1.8806040  )
         8           Pt1 tau(   8) = (   1.9583580   1.1306590   1.8806040  )

     number of k points=    16  Marzari-Vanderbilt smearing, width (Ry)=  0.0200
                       cart. coord. in units 2pi/alat
        k(    1) = (   0.0000000   0.0000000   0.0000000), wk =   0.0625000
        k(    2) = (   0.0000000   0.2886751  -0.1070899), wk =   0.0625000
        k(    3) = (   0.0000000  -0.5773503   0.2141799), wk =   0.0625000
        k(    4) = (   0.2500000   0.1443376  -0.2141799), wk =   0.0625000
        k(    5) = (   0.2500000  -0.7216878   0.1070899), wk =   0.0625000
        k(    6) = (   0.2500000  -0.4330127   0.0000000), wk =   0.0625000
        k(    7) = (  -0.5000000  -0.2886751   0.4283598), wk =   0.0625000
        k(    8) = (  -0.2500000   0.1443376   0.1070899), wk =   0.0625000
        k(    9) = (   0.0000000  -0.2886751   0.1070899), wk =   0.0625000
        k(   10) = (   0.2500000  -0.1443376  -0.1070899), wk =   0.0625000
        k(   11) = (   0.5000000  -0.2886751  -0.2141799), wk =   0.0625000
        k(   12) = (  -0.2500000  -0.1443376   0.2141799), wk =   0.0625000
        k(   13) = (   0.5000000  -0.5773503  -0.1070899), wk =   0.0625000
        k(   14) = (  -0.2500000   0.7216878  -0.1070899), wk =   0.0625000
        k(   15) = (  -0.5000000   0.5773503   0.1070899), wk =   0.0625000
        k(   16) = (  -0.2500000   0.4330127  -0.0000000), wk =   0.0625000

     Initial potential from superposition of free atoms

     starting charge   87.99450, renormalised to   88.00000

     negative rho (up, down):  5.383E-04 6.865E-02

     atom number    1 relative position :    2.7083   1.2750   2.2697
     charge :    10.199770
     magnetization :          2.082674    0.046846   -3.926917
     magnetization/charge:    0.204188    0.004593   -0.385001
     polar coord.: r, theta, phi [deg] :     4.445268  152.054379    1.288537

[...]

     Starting wfcs are  152 randomized atomic wfcs

     Self-consistent Calculation

     iteration #  1     ecut=    52.00 Ry     beta= 0.70
     Davidson diagonalization with overlap
     ethr =  1.00E-02,  avg # of iterations =  2.9

[...]

     total energy              =    -741.50069756 Ry
     Harris-Foulkes estimate   =    -766.80943978 Ry
     estimated scf accuracy    <      30.73815445 Ry

     total magnetization       =     8.42     2.53    -5.19 Bohr mag/cell
     absolute magnetization    =    17.18 Bohr mag/cell

[...]

     total energy              =    -767.41002126 Ry
     Harris-Foulkes estimate   =    -767.41002126 Ry
     estimated scf accuracy    <       0.00000002 Ry

[...]

     iteration # 29     ecut=    52.00 Ry     beta= 0.70
     Davidson diagonalization with overlap
     ethr =  1.83E-11,  avg # of iterations =  2.4

[...]

     atom number    8 relative position :    1.9584   1.1307   1.8806
     charge :     7.587561
     magnetization :          0.044759    0.005647   -0.017465
     magnetization/charge:    0.005899    0.000744   -0.002302
     polar coord.: r, theta, phi [deg] :     0.048377  111.163562    7.191014

     End of self-consistent calculation

          k = 0.0000 0.0000 0.0000 ( 23129 PWs)   bands (ev):

   -56.3027 -56.0639 -56.0639 -56.0638 -55.6897 -55.4511 -55.4510 -55.4509
   -33.5021 -33.4841 -33.4770 -33.1112 -33.1017 -33.0886 -33.0090 -32.7237
   -32.6675 -32.6227 -32.5906 -32.3995 -32.3925 -32.3880 -32.1861 -32.1722
   -32.1580 -32.0872 -32.0741 -31.7778 -31.7534 -31.7463 -31.5594 -31.4281
    -9.0403  -8.9827  -7.2958  -7.2957  -7.2956  -7.2559  -7.2558  -7.2556
    -5.8942  -5.8923  -5.8916  -5.8177  -5.8171  -5.8151  -5.7638  -5.4563
    -4.5591  -4.5468  -4.1775  -4.1756  -4.1750  -3.9623  -3.9618  -3.9601
    -3.3780  -3.3641  -2.8093  -2.4673  -2.4644  -2.4542  -2.4370  -2.4120
    -2.3819  -2.3778  -1.8938  -1.8913  -1.8891  -1.6718  -1.6264  -1.4402
    -1.4383  -1.4381  -1.2037  -1.1695  -0.6826  -0.3686  -0.3615  -0.3585
     0.0049   0.0084   0.0109   0.0260   0.2755   0.4692   0.4885   0.4895
     0.5430   0.5482   0.5559   0.6388   0.6469   0.6472   0.6491   0.9624
     0.9649   0.9714   1.0594   1.0712   1.6460   1.6512   2.5560   2.5692
     2.5727   2.7343   2.7429   2.7706   3.0722   3.0862   3.1458   3.1745
     3.1780   3.3286   3.3307   3.3427   3.6841   3.6970   4.1600   4.1621

[...]

          k =-0.5000-0.2887 0.4284 ( 22994 PWs)   bands (ev):

[...]

          k = 0.5000-0.5774-0.1071 ( 23084 PWs)   bands (ev):

[...]

          k =-0.2500 0.4330-0.0000 ( 23084 PWs)   bands (ev):

   -56.2094 -56.1248 -56.1246 -56.0388 -55.5960 -55.5121 -55.5118 -55.4259
   -33.3152 -33.2384 -33.1882 -33.1367 -33.0975 -33.0315 -32.9057 -32.7808
   -32.6380 -32.6256 -32.4804 -32.4770 -32.4271 -32.2767 -32.2700 -32.2421
   -32.1901 -32.1301 -32.1300 -32.0116 -31.9166 -31.7696 -31.7483 -31.6243
    -7.3092  -7.1860  -6.3873  -6.3793  -6.3380  -6.3320  -5.5982  -5.5551
    -5.3800  -5.3601  -5.3334  -5.1915  -5.1763  -5.1394  -5.1060  -5.0362
    -4.9330  -4.5881  -4.3968  -4.3676  -4.2531  -4.2518  -4.2112  -4.0554
    -4.0473  -3.9200  -3.8490  -3.7512  -3.7341  -3.5798  -3.5167  -3.4273
    -3.3111  -3.1083  -2.5250  -2.5047  -2.3693  -2.3466  -2.3465  -2.2553
    -2.0654  -1.8009  -1.4940  -1.2755  -1.2590  -0.8704  -0.5835  -0.5640
    -0.5148  -0.3878  -0.3846  -0.2012  -0.1868  -0.1157  -0.1085  -0.0926
    -0.0421   0.0437   0.1477   0.4450   0.4592   0.5269   0.6782   0.6950
     0.8096   0.8120   1.2433   1.3132   1.3187   1.3411   1.5042   1.6136
     1.8601   1.9156   2.0617   2.0868   2.2388   2.4679   2.6520   2.6742
     2.7713   2.8035   2.8508   2.9055   3.0679   3.3694   3.3998   3.4394

     the Fermi energy is     0.0858 ev

!    total energy              =    -767.41002127 Ry
     Harris-Foulkes estimate   =    -767.41002127 Ry
     estimated scf accuracy    <          7.7E-09 Ry

     The total energy is the sum of the following terms:

     one-electron contribution =   -5310.40195808 Ry
     hartree contribution      =    2671.85810474 Ry
     xc contribution           =    -198.37236036 Ry
     ewald contribution        =    2069.50032803 Ry
     smearing contrib. (-TS)   =       0.00586440 Ry

     total magnetization       =     4.23     0.53    -1.85 Bohr mag/cell
     absolute magnetization    =     4.66 Bohr mag/cell

     convergence has been achieved in  29 iterations

     negative rho (up, down):  5.134E-04 2.746E-02

     Forces acting on atoms (cartesian axes, Ry/au):

     atom    1 type  1   force =     0.00012690    0.00005585    0.03237627
     atom    2 type  2   force =    -0.00000854   -0.00005527    0.03248955
     atom    3 type  1   force =     0.00002004   -0.00001141    0.03248722
     atom    4 type  2   force =    -0.00003383   -0.00000908    0.03248983
     atom    5 type  3   force =    -0.00001909   -0.00003174   -0.03242942
     atom    6 type  4   force =    -0.00002341    0.00000286   -0.03249423
     atom    7 type  4   force =    -0.00001468    0.00001551   -0.03248919
     atom    8 type  3   force =    -0.00004739    0.00003328   -0.03243004

     Total force =     0.064922     Total SCF correction =     0.000077

     Computing stress (Cartesian axis) and pressure

     negative rho (up, down):  5.134E-04 2.746E-02
          total   stress  (Ry/bohr**3)                   (kbar)     P=   35.66
   0.00029847   0.00000011   0.00000011         43.91      0.02      0.02
   0.00000011   0.00029807  -0.00000002          0.02     43.85     -0.00
   0.00000011  -0.00000002   0.00013062          0.02     -0.00     19.21

     Writing output data file Pt.save/

     General routines

     Parallel routines

   This run was terminated on:  21:38:29  10Jan2020

   JOB DONE.